letting n_nurses=25
letting n_days=7
letting n_shift_types=4
letting max_covers=8
letting t_covers=61
letting covers=[6,8,3,0,8,6,3,0,1,0,0,0,4,2,4,0,6,7,3,0,0,0,0,0,0,0,0,0]
letting prefes=[2,1,1,2,4,1,4,1,2,1,2,2,2,1,2,2,2,1,2,2,2,1,2,2,2,1,2,2,2,1,2,2,4,1,4,1,2,1,2,2,2,1,2,2,2,1,2,2,2,1,2,2,2,1,2,2,2,1,1,2,4,1,4,1,2,4,2,2,2,4,2,2,2,4,2,2,2,4,2,2,2,4,2,2,2,2,1,2,4,1,4,1,2,1,2,2,2,1,2,2,2,1,2,2,2,1,2,2,2,1,2,2,2,1,1,2,4,1,4,1,2,4,2,2,2,4,2,2,2,4,2,2,2,4,2,2,2,4,2,2,1,2,2,1,4,1,4,1,1,1,1,1,1,1,1,1,1,1,1,1,1,1,1,1,1,1,1,1,2,1,1,2,1,1,1,1,2,1,2,2,2,1,2,2,2,1,2,2,2,1,2,2,2,1,2,2,2,1,1,2,1,1,1,1,2,1,2,2,2,1,2,2,2,1,2,2,2,1,2,2,2,1,2,2,2,1,1,2,1,1,1,1,2,1,2,2,2,1,2,2,2,1,2,2,2,1,2,2,2,1,2,2,2,1,2,2,4,1,4,1,2,1,2,2,2,1,2,2,2,1,2,2,2,1,2,2,2,1,2,2,2,1,1,2,4,2,4,2,2,1,2,2,2,1,2,2,2,1,2,2,2,1,2,2,2,1,2,2,2,1,1,2,4,1,4,1,2,4,2,2,2,4,2,2,2,4,2,2,2,4,2,2,2,4,2,2,1,1,1,1,4,1,4,1,1,1,1,1,1,1,1,1,1,1,1,1,1,1,1,1,1,1,1,1,1,1,1,1,4,2,4,2,1,1,1,1,1,1,1,1,1,1,1,1,1,1,1,1,1,1,1,1,2,1,1,2,4,2,4,2,2,1,2,2,2,1,2,2,2,1,2,2,2,1,2,2,2,1,2,2,2,2,2,2,1,1,1,1,2,4,2,2,2,4,2,2,2,4,2,2,2,4,2,2,2,4,2,2,2,2,2,2,4,1,4,1,2,1,2,2,2,1,2,2,2,1,2,2,2,1,2,2,2,1,2,2,1,1,1,1,4,1,4,1,1,1,1,1,1,1,1,1,1,1,1,1,1,1,1,1,1,1,1,1,2,1,1,2,4,2,4,2,2,1,2,2,2,1,2,2,2,1,2,2,2,1,2,2,2,1,2,2,2,2,1,2,1,1,1,1,2,1,2,2,2,1,2,2,2,1,2,2,2,1,2,2,2,1,2,2,2,1,1,2,4,2,4,2,2,1,2,2,2,1,2,2,2,1,2,2,2,1,2,2,2,1,2,2,2,1,1,2,4,1,4,1,2,4,2,2,2,4,2,2,2,4,2,2,2,4,2,2,2,4,2,2,1,1,1,1,4,1,4,1,1,1,1,1,1,1,1,1,1,1,1,1,1,1,1,1,1,1,1,1,2,1,1,2,4,1,4,1,2,1,2,2,2,1,2,2,2,1,2,2,2,1,2,2,2,1,2,2,2,1,1,2,4,1,4,1,2,1,2,2,2,1,2,2,2,1,2,2,2,1,2,2,2,1,2,2]
letting ub =  242
